============================[ Problem Statistics ]=============================|                                                                             ||  Number of variables:          4242                                         ||  Number of clauses:            9829                                         ||  Parse time:                   0.23 s                                       ||                                                                             |============================[ Search Statistics ]==============================| Conflicts |          ORIGINAL         |          LEARNT          | Progress ||           |    Vars  Clauses Literals |    Limit  Clauses Lit/Cl |          |===============================================================================|       100 |    1591     6034   347495 |     2212      100     53 | 62.501 % |===============================================================================restarts              : 2conflicts             : 136            (360 /sec)decisions             : 305            (0.00 % random) (807 /sec)propagations          : 9925           (26257 /sec)conflict literals     : 8457           (95.53 % deleted)CPU time              : 0.378 sSATISFIABLE